m = 4; % number of couriers
n = 4; % number of packages

l = [4, 5, 3, 5]; % maximum carriable weight per courier
s = [3, 3, 3, 1]; % weight of each package

D = % distance matrix 
	 [| 2, 2, 2, 1, 2
	 | 2, 4, 2, 1, 3
	 | 2, 2, 4, 4, 1
	 | 1, 1, 4, 3, 2
	 | 3, 4, 1, 4, 3
	 |];